&CONTROL
  calculation = 'scf'
  etot_conv_thr =   3.2100000000d-03
  forc_conv_thr =   1.0000000000d-04
  outdir = './out/'
  prefix = 'aiida'
  pseudo_dir = './pseudo/'
  tprnfor = .true.
  tstress = .true.
  verbosity = 'high'
/
&SYSTEM
  degauss =   1.4699723600d-02
  ecutrho =   4.8000000000d+02
  ecutwfc =   6.0000000000d+01
  ibrav = 0
  nat = 321
  ntyp = 4
  occupations = 'smearing'
  smearing = 'cold'
/
&ELECTRONS
  conv_thr =   6.4200000000d-08
  electron_maxstep = 80
  mixing_beta =   4.0000000000d-01
  diago_david_ndim = 2
/
ATOMIC_SPECIES
Br     79.904 br_pbe_v1.4.uspp.F.UPF
C      12.011 C.pbe-n-kjpaw_psl.1.0.0.UPF
H      1.00794 H.pbe-rrkjus_psl.1.0.0.UPF
Si     28.0855 Si.pbe-n-rrkjus_psl.1.0.0.UPF
ATOMIC_POSITIONS crystal
Si           0.8090399920       0.7635099990       0.0000000000 
Si           0.3792400230       0.7584900500       0.0021100000 
Si           0.3791199800       0.9057899290       0.0019500000 
Si           0.2410099970       0.9060900390       0.0020900000 
Si           0.0939900110       0.9060099940       0.0030200000 
Si           0.8075999970       0.6152099980       0.0034400000 
Si           0.6707399590       0.4784199690       0.0036800000 
Si           0.5234030279       0.4765996516       0.0072692053 
Si           0.6666700000       0.3333299950       0.0098100000 
Si           0.9543500400       0.9087000100       0.0085300000 
Si           0.6663700230       0.6203200290       0.0105400000 
Si           0.2378499910       0.7621499570       0.0103900000 
Si           0.5717599980       0.4282399770       0.0209199990 
Si           0.1430900180       0.8569100070       0.0223900010 
Si           0.4283899960       0.8567699880       0.0209899980 
Si           0.2858699680       0.7141299750       0.0409299970 
Si           0.8569499670       0.7138900010       0.0215300000 
Si           0.9992799550       0.8564599640       0.0379300020 
Si           0.5690499920       0.5695299850       0.0388699990 
Si           0.0000000000       0.0000000000       0.0495200020 
Si           0.7171000670       0.7176300350       0.0393999990 
Si           0.5711299730       0.2855600030       0.0425000010 
Si           0.7140099970       0.5720999730       0.0420700000 
Si           0.1415100050       0.7137499820       0.0414299990 
Si           0.2841500250       0.7158500190       0.1396400000 
Si           0.5632699690       0.2816300130       0.1403300060 
Si           0.1432200220       0.8567799830       0.1172899980 
Si           0.5718700050       0.4281299860       0.1141199970 
Si           0.8568799890       0.7137599780       0.1150399940 
Si           0.0007000010       0.8346499640       0.1321599900 
Si           0.4281000000       0.8561999990       0.1160600010 
Si           0.7161499940       0.5710499960       0.1398500100 
Si           0.5442699960       0.5455300300       0.1325100030 
Si           0.0006600310       0.7437099950       0.1327500060 
Si           0.1392899750       0.7133999760       0.1395200090 
Si           0.6169200010       0.3830800170       0.1601800010 
Si           0.2361199860       0.7638799960       0.1694100070 
Si           0.7674099700       0.6730700090       0.1619700010 
Si           0.3839799840       0.7679499640       0.1641100040 
Si           0.7636499870       0.5272999730       0.1868099990 
Si           0.0961500000       0.6126000270       0.1651800050 
Si           0.6135899720       0.5180799920       0.1614199980 
Si           0.9017900160       0.8035799600       0.1625599970 
Si           0.0943399950       0.7686499760       0.1660600090 
Si           0.0986900000       0.9013099820       0.1659000130 
Si           0.5718399630       0.4281600130       0.2138100030 
Si           0.1428000170       0.8572000400       0.2221199930 
Si           0.8570000160       0.7139899560       0.2151599920 
Si           0.1435299930       0.5717699990       0.2215900020 
Si           0.9544700470       0.1909600040       0.0000000000 
Si           0.3792399840       0.6207599950       0.0021100000 
Si           0.5266699370       0.6208799810       0.0019500000 
Si           0.6650800070       0.7589899890       0.0020900000 
Si           0.8120099780       0.9060099940       0.0030200000 
Si           0.8075999820       0.1923999890       0.0034400000 
Si           0.8076800080       0.3292599860       0.0036800000 
Si           0.9543335529       0.4771701683       0.0016663309 
Si           0.9543500080       0.0456500010       0.0085300000 
Si           0.9539499520       0.3336299830       0.0105400000 
Si           0.5242999650       0.7621499570       0.0103900000 
Si           0.8564799790       0.4282399770       0.0209199990 
Si           0.7138200250       0.8569100070       0.0223900010 
Si           0.4283899770       0.5716099480       0.0209899980 
Si           0.4282699940       0.7141299750       0.0409299970 
Si           0.8569499730       0.1430499920       0.0215300000 
Si           0.8571799980       0.0007200000       0.0379300020 
Si           0.0004799950       0.4309499850       0.0388699990 
Si           0.0005299930       0.2828999930       0.0393999990 
Si           0.7144399920       0.4288699800       0.0425000010 
Si           0.8580899680       0.2859899930       0.0420700000 
Si           0.5722400010       0.8584899500       0.0414299990 
Si           0.4316999940       0.7158500190       0.1396400000 
Si           0.7183700380       0.4367300010       0.1403300060 
Si           0.7135699660       0.8567799830       0.1172899980 
Si           0.8562700210       0.4281299860       0.1141199970 
Si           0.8568800370       0.1431200020       0.1150399940 
Si           0.8339499910       0.9992999690       0.1321599900 
Si           0.4280999940       0.5718999810       0.1160600010 
Si           0.8549000250       0.2838500160       0.1398500100 
Si           0.0012599910       0.4557299970       0.1325100030 
Si           0.7430499250       0.9993399510       0.1327500060 
Si           0.5741099470       0.8607100140       0.1395200090 
Si           0.7661600160       0.3830800170       0.1601800010 
Si           0.5277600100       0.7638799960       0.1694100070 
Si           0.9056599640       0.2325899990       0.1619700010 
Si           0.3839800080       0.6160200010       0.1641100040 
Si           0.7636500010       0.2363500040       0.1868099990 
Si           0.5164499570       0.9038499840       0.1651800050 
Si           0.9044900370       0.3864099900       0.1614199980 
Si           0.9017900300       0.0982100000       0.1625599970 
Si           0.6743100170       0.9056599870       0.1660600090 
Si           0.8026300220       0.9013099820       0.1659000130 
Si           0.8563200150       0.4281600130       0.2138100030 
Si           0.7143999870       0.8572000400       0.2221199930 
Si           0.8569999770       0.1430000050       0.2151599920 
Si           0.4282299770       0.8564699590       0.2215900020 
Si           0.2364899970       0.0455299990       0.0000000000 
Si           0.2415099700       0.6207599950       0.0021100000 
Si           0.0942099870       0.4733299700       0.0019500000 
Si           0.0939099880       0.3349199750       0.0020900000 
Si           0.0939900020       0.1879899910       0.0030200000 
Si           0.3847900030       0.1923999890       0.0034400000 
Si           0.5215800130       0.1923200050       0.0036800000 
Si           0.5228405074       0.0456969886       0.0018937084 
Si           0.0913000020       0.0456500010       0.0085300000 
Si           0.3796799950       0.0460500000       0.0105400000 
Si           0.2378499830       0.4756999660       0.0103900000 
Si           0.5717599980       0.1435199950       0.0209199990 
Si           0.1430899950       0.2861799890       0.0223900010 
Si           0.1432299940       0.5716099480       0.0209899980 
Si           0.2858699750       0.5717300170       0.0409299970 
Si           0.2861100230       0.1430499920       0.0215300000 
Si           0.1435399910       0.1428199940       0.0379300020 
Si           0.4304699740       0.9995199510       0.0388699990 
Si           0.2823699940       0.9994699740       0.0393999990 
Si           0.7144399980       0.2855600030       0.0425000010 
Si           0.4278999800       0.1419099940       0.0420700000 
Si           0.2862499900       0.4277599890       0.0414299990 
Si           0.2841500030       0.5683000070       0.1396400000 
Si           0.7183700490       0.2816300130       0.1403300060 
Si           0.1432200110       0.2864300000       0.1172899980 
Si           0.5718700340       0.1437299930       0.1141199970 
Si           0.2862400000       0.1431200020       0.1150399940 
Si           0.1653499920       0.1660499980       0.1321599900 
Si           0.1437999960       0.5718999810       0.1160600010 
Si           0.4289500180       0.1450999900       0.1398500100 
Si           0.4544699970       0.9987399750       0.1325100030 
Si           0.2562899970       0.2569499960       0.1327500060 
Si           0.2865999700       0.4258899720       0.1395200090 
Si           0.6169199690       0.2338400090       0.1601800010 
Si           0.2361200050       0.4722400100       0.1694100070 
Si           0.3269299780       0.0943399930       0.1619700010 
Si           0.2320499970       0.6160200010       0.1641100040 
Si           0.4727000020       0.2363500040       0.1868099990 
Si           0.3873999910       0.4835499910       0.1651800050 
Si           0.4819200160       0.0955099990       0.1614199980 
Si           0.1964199970       0.0982100000       0.1625599970 
Si           0.2313500050       0.3256899980       0.1660600090 
Si           0.0986899930       0.1973699820       0.1659000130 
Si           0.5718399670       0.1436800050       0.2138100030 
Si           0.1428000030       0.2856000050       0.2221199930 
Si           0.2860099960       0.1430000050       0.2151599920 
Si           0.4282299830       0.5717699990       0.2215900020 
Si           0.9544700070       0.7635099990       0.0000000000 
Si           0.5266699490       0.9057899290       0.0019500000 
Si           0.6650800070       0.9060900390       0.0020900000 
Si           0.8076800100       0.4784199690       0.0036800000 
Si           0.9539500060       0.6203200290       0.0105400000 
Si           0.8571800090       0.8564599640       0.0379300020 
Si           0.0004799930       0.5695299850       0.0388699990 
Si           0.0005300040       0.7176300350       0.0393999990 
Si           0.8580899760       0.5720999730       0.0420700000 
Si           0.5722400120       0.7137499820       0.0414299990 
Si           0.8339499990       0.8346499640       0.1321599900 
Si           0.8549000020       0.5710499960       0.1398500100 
Si           0.0012599990       0.5455300300       0.1325100030 
Si           0.7430499640       0.7437099950       0.1327500060 
Si           0.5741099300       0.7133999760       0.1395200090 
Si           0.9056599680       0.6730700090       0.1619700010 
Si           0.5164499740       0.6126000270       0.1651800050 
Si           0.9044900200       0.5180799920       0.1614199980 
Si           0.6743100170       0.7686499760       0.1660600090 
Si           0.2364899920       0.1909600040       0.0000000000 
Si           0.0942099730       0.6208799810       0.0019500000 
Si           0.0939100170       0.7589899890       0.0020900000 
Si           0.5215799780       0.3292599860       0.0036800000 
Si           0.3796799950       0.3336299830       0.0105400000 
Si           0.1435399940       0.0007200000       0.0379300020 
Si           0.4304699900       0.4309499850       0.0388699990 
Si           0.2823699910       0.2828999930       0.0393999990 
Si           0.4278999900       0.2859899930       0.0420700000 
Si           0.2862499840       0.8584899500       0.0414299990 
Si           0.1653499780       0.9992999690       0.1321599900 
Si           0.4289500260       0.2838500160       0.1398500100 
Si           0.4544700070       0.4557299970       0.1325100030 
Si           0.2562899720       0.9993399510       0.1327500060 
Si           0.2865999780       0.8607100140       0.1395200090 
Si           0.3269299640       0.2325899990       0.1619700010 
Si           0.3873999920       0.9038499840       0.1651800050 
Si           0.4819200060       0.3864099900       0.1614199980 
Si           0.2313500060       0.9056599870       0.1660600090 
Si           0.8090400020       0.0455299990       0.0000000000 
Si           0.3791199820       0.4733299700       0.0019500000 
Si           0.2410099780       0.3349199750       0.0020900000 
Si           0.6707399920       0.1923200050       0.0036800000 
Si           0.6663700410       0.0460500000       0.0105400000 
Si           0.9992799670       0.1428199940       0.0379300020 
Si           0.5690499780       0.9995199510       0.0388699990 
Si           0.7171000510       0.9994699740       0.0393999990 
Si           0.7140099790       0.1419099940       0.0420700000 
Si           0.1415099900       0.4277599890       0.0414299990 
Si           0.0006999980       0.1660499980       0.1321599900 
Si           0.7161499720       0.1450999900       0.1398500100 
Si           0.5442699780       0.9987399750       0.1325100030 
Si           0.0006600080       0.2569499960       0.1327500060 
Si           0.1392899840       0.4258899720       0.1395200090 
Si           0.7674099620       0.0943399930       0.1619700010 
Si           0.0961499820       0.4835499910       0.1651800050 
Si           0.6135899820       0.0955099990       0.1614199980 
Si           0.0943400020       0.3256899980       0.1660600090 
Br           0.1398265394       0.8566905607       0.3139220556 
Br           0.4298747599       0.8594727112       0.3133637306 
Br           0.1401073632       0.5670203220       0.3135211897 
Br           0.4277786628       0.5696311933       0.3132147716 
Br           0.5734261046       0.4283509086       0.3064292572 
Br           0.0000000000       0.0000000000       0.1458800030 
Br           0.2793284346       0.1425977195       0.3072437115 
C            0.8354208943       0.4762114760       0.3332129774 
C            0.8050848414       0.4149615032       0.3332437222 
C            0.8030202894       0.5062264113       0.3319827718 
C            0.7426922572       0.3842294915       0.3315702038 
C            0.8972775847       0.5073665078       0.3338468646 
C            0.8364290429       0.3843731351       0.3342131212 
C            0.7415708236       0.4741427968       0.3302571818 
C            0.7126288999       0.4155912406       0.3300971541 
C            0.9267196721       0.4759239492       0.3347653070 
C            0.8973768645       0.4166790275       0.3350615873 
C            0.8357792566       0.5656746675       0.3321865386 
C            0.7166118605       0.3247975178       0.3311223855 
C            0.9289887865       0.5690213187       0.3332805478 
C            0.8070893955       0.3227481479       0.3332300119 
C            0.8974561120       0.5960749790       0.3327992444 
C            0.7484491203       0.2949469773       0.3317380247 
C            0.5735754361       0.1795149223       0.3329955244 
C            0.5123117187       0.1474207269       0.3328064932 
C            0.6022542018       0.2417165717       0.3317627137 
C            0.4799895647       0.1765597297       0.3312871347 
C            0.6054338753       0.1494395464       0.3335010749 
C            0.4825471201       0.0858962208       0.3328181809 
C            0.5686354563       0.2694623098       0.3305480700 
C            0.5100002666       0.2381679378       0.3302111813 
C            0.5742255052       0.0880310583       0.3338577311 
C            0.5153170250       0.0573866224       0.3334395916 
C            0.6619872611       0.2693517249       0.3311435311 
C            0.4198029922       0.1442454617       0.3300396538 
C            0.6668055584       0.1801732106       0.3327060938 
C            0.4219771601       0.0552867469       0.3313759583 
C            0.6931186091       0.2389469802       0.3316113798 
C            0.3911152821       0.0842131346       0.3300197060 
C            0.8386635693       0.0379480696       0.3332354752 
C            0.8081341005       0.9768400334       0.3328975059 
C            0.8076848994       0.0687563582       0.3339355826 
C            0.7463683840       0.9461665191       0.3334674246 
C            0.9010868046       0.0683201573       0.3331677712 
C            0.8402556052       0.9464684590       0.3324116809 
C            0.7468789174       0.0370778493       0.3333259517 
C            0.7172255183       0.9778222246       0.3331397366 
C            0.9308204787       0.0367046344       0.3311531491 
C            0.9015974464       0.9781661806       0.3307893199 
C            0.8376840362       0.1305786212       0.3340837141 
C            0.7144897628       0.8843749207       0.3336504803 
C            0.9277460300       0.1277005740       0.3350352635 
C            0.8075909268       0.8870322408       0.3336688902 
C            0.8966598453       0.1581813893       0.3352693041 
C            0.7459891019       0.8567484347       0.3342762758 
C            0.8066846112       0.7421591516       0.3344993694 
C            0.8363051297       0.7104712714       0.3349299901 
C            0.7448230039       0.7119542311       0.3331408264 
C            0.8034448457       0.6481049328       0.3337584492 
C            0.8396257642       0.8044147851       0.3342319427 
C            0.8983956392       0.7407624047       0.3353783853 
C            0.7143949332       0.6506645662       0.3315801900 
C            0.7423346593       0.6198026075       0.3318851841 
C            0.9007652127       0.8327366304       0.3341282888 
C            0.9288348701       0.8020043734       0.3349155662 
C            0.7137414562       0.7421311733       0.3330974596 
C            0.8360334664       0.6208689643       0.3330164233 
C            0.8071622855       0.8317962144       0.3340750551 
C            0.9294593947       0.7105252043       0.3348344595 
C            0.7458294350       0.8009878091       0.3341917385 
C            0.8974473462       0.6517230027       0.3336148089 
C            0.1332334641       0.3024819463       0.3377931496 
C            0.0719590534       0.2715693823       0.3369934448 
C            0.1641791725       0.3640451766       0.3349102866 
C            0.0412844326       0.3025510214       0.3343085868 
C            0.1646962930       0.2721095070       0.3394112161 
C            0.0423245136       0.2093905298       0.3370046035 
C            0.1324164344       0.3935002308       0.3320883709 
C            0.0734914807       0.3638078988       0.3319219723 
C            0.1335151031       0.2104915861       0.3396308036 
C            0.0749152232       0.1805210792       0.3380176377 
C            0.2247352068       0.3932688006       0.3331468919 
C            0.9798746144       0.2727898664       0.3336828216 
C            0.2249991117       0.3033545825       0.3379404194 
C            0.9827420355       0.1826714395       0.3357571639 
C            0.2545765665       0.3632986359       0.3346159234 
C            0.9525086234       0.2139169545       0.3350667143 
H            0.9736723901       0.4997347259       0.3347329232 
H            0.9210224989       0.3933812082       0.3352007219 
H            0.9758812799       0.5914021842       0.3336423833 
H            0.8320715848       0.3008524501       0.3335243670 
H            0.7177577649       0.4971230367       0.3288495728 
H            0.6658345482       0.3921285719       0.3284183967 
H            0.3953146318       0.1666268463       0.3287849752 
H            0.5987621273       0.0656394819       0.3337327711 
H            0.4924932573       0.0104288934       0.3330516041 
H            0.6900198804       0.1564770610       0.3327444249 
H            0.3996699247       0.0083677772       0.3312694791 
H            0.3442241573       0.0601529489       0.3289108410 
H            0.5903364695       0.3162506487       0.3294257927 
H            0.4847805907       0.2598192490       0.3291091014 
H            0.8130737363       0.1528720040       0.3342619194 
H            0.6676039332       0.8620004957       0.3349147158 
H            0.9776011846       0.0602700066       0.3298221114 
H            0.9248661060       0.9546488218       0.3292499233 
H            0.7235176082       0.0606624872       0.3330035250 
H            0.6702868296       0.9542276119       0.3327539518 
H            0.6668610772       0.7181145743       0.3321404296 
H            0.9252024730       0.8795349060       0.3333736000 
H            0.9757556253       0.8241592641       0.3345407424 
H            0.9763764881       0.7346762131       0.3348151882 
H            0.6675072493       0.6284457707       0.3300558498 
H            0.7178273638       0.5730218151       0.3303622114 
H            0.2480777346       0.4400896674       0.3301381892 
H            0.9574739296       0.2972587606       0.3319948743 
H            0.1579466843       0.1879959338       0.3397294853 
H            0.0520669316       0.1337159396       0.3371992571 
H            0.2484155968       0.2798320946       0.3383021510 
H            0.3014264438       0.3868273478       0.3327111600 
H            0.1559290488       0.4403736577       0.3296591088 
H            0.0499282555       0.3871350527       0.3296077860 
K_POINTS automatic
2 2 2 0 0 0
CELL_PARAMETERS angstrom
     26.8815994263       0.0000000000       0.0000000000
    -13.4407997131      23.2801479975       0.0000000000
      0.0000000000       0.0000000000      24.6979007721
